NAME : random_15
COMMENT : 37 random nodes
TYPE : TSP
DIMENSION : 37
EDGE_WEIGHT_TYPE : EUC_2D
NODE_COORD_SECTION
1 4079 -1941
2 -2106 1268
3 3578 -172
4 1122 2942
5 2912 3642
6 3400 405
7 2367 2270
8 2327 1336
9 535 2112
10 -81 3972
11 2292 -1723
12 2702 1459
13 -708 4326
14 2392 -965
15 -556 4039
16 -806 -2211
17 2301 1158
18 54 3891
19 -1209 4164
20 2636 1848
21 2372 2488
22 2863 1013
23 675 1177
24 164 2790
25 3802 241
26 -100 -1744
27 1366 1288
28 -2075 -2417
29 77 -1835
30 1103 -888
31 -1480 3750
32 -1401 2009
33 330 -586
34 -2721 2672
35 3272 -820
36 -2722 4404
37 -1188 -753
EOF